PROBLEM NAME: eil51_n6
KNAPSACK DATA TYPE: uncorrelated
DIMENSION: 6
NUMBER OF ITEMS: 5
CAPACITY OF KNAPSACK: 1114
MIN SPEED: 0.1
MAX SPEED: 1
RENTING RATIO: 2.91
EDGE_WEIGHT_TYPE: CEIL_2D
NODE_COORD_SECTION	(INDEX, X, Y):
1	31	62
2	52	41
3	27	23
4	57	58
5	62	42
6	43	67
ITEMS SECTION	(INDEX, PROFIT, WEIGHT, ASSIGNED NODE NUMBER):
1	790	280	6
2	773	586	4
3	682	337	5
4	652	486	2
5	488	354	3
